param set_len = 20;
param target = 183616329;
param values := [0] 1874633 [1] 11817084 [2] 9178158 [3] 32524197 [4] 159373 [5] 30768588 [6] 18028561 [7] 32088154 [8] 28055122 [9] 12328948 [10] 4586787 [11] 2797954 [12] 27522395 [13] 17101185 [14] 3136992 [15] 13828142 [16] 13210116 [17] 21600543 [18] 28108236 [19] 33302139 ;
